# Solution for model GasLib-40
# Objective value = 1.0628462708721077e+01
loadshed[innode_1] 0
loadshed[innode_2] 0
loadshed[innode_3] 0
loadshed[innode_4] 0
loadshed[innode_5] 0
loadshed[innode_6] 0
loadshed[innode_7] 0
loadshed[innode_8] 0
loadshed[source_1] -2.9483136567008716e-01
loadshed[source_2] 5.7363494043904284e-02
loadshed[source_3] 3.0469820898845967e-01
loadshed[sink_1] 0
loadshed[sink_2] 0
loadshed[sink_3] 0
loadshed[sink_4] 0
loadshed[sink_5] 0
loadshed[sink_6] 0
loadshed[sink_7] 0
loadshed[sink_8] 0
loadshed[sink_9] 0
loadshed[sink_10] 0
loadshed[sink_11] 0
loadshed[sink_12] 0.649893261170206
loadshed[sink_13] 0
loadshed[sink_14] 0
loadshed[sink_15] 0
loadshed[sink_16] 0
loadshed[sink_17] 0
loadshed[sink_18] 0
loadshed[sink_19] 0
loadshed[sink_20] 0
loadshed[sink_21] 0
loadshed[sink_22] 0
loadshed[sink_23] 0
loadshed[sink_24] 0
loadshed[sink_25] 0
loadshed[sink_26] 0
loadshed[sink_27] 0
loadshed[sink_28] 0
loadshed[sink_29] 0
flow[source_1,sink_3] 2.0470025027416341e+02
flow[innode_1,sink_16] 1.6354166666666970e+01
flow[innode_6,sink_13] 4.5587133862658931e+00
flow[sink_13,sink_14] -1.1795453280400775e+01
flow[sink_14,sink_10] -2.8149619947067322e+01
flow[sink_25,sink_26] 1.7366134956719446e+02
flow[sink_26,sink_9] 1.2274733901663630e+02
flow[sink_9,sink_18] 1.0639317234996963e+02
flow[sink_26,sink_4] 3.4559843883891524e+01
flow[sink_4,sink_20] -2.8314354390751646e+01
flow[sink_18,sink_6] 9.0039005683302960e+01
flow[sink_25,innode_8] -1.7199191694082702e+02
flow[sink_6,sink_7] 4.0976505683302548e+01
flow[sink_6,sink_22] 3.2708333333333641e+01
flow[sink_7,sink_24] 3.8434037291278926e+01
flow[sink_22,sink_1] 1.6354166666666970e+01
flow[sink_24,sink_21] 2.2079870624612258e+01
flow[sink_21,sink_12] 5.7257039579455915e+00
flow[sink_7,sink_5] -1.3811698274643049e+01
flow[sink_5,sink_17] -3.0165864941309792e+01
flow[sink_17,sink_4] -4.6520031607976463e+01
flow[sink_17,sink_8] 0
flow[sink_3,sink_23] 16.3541666666697
flow[sink_8,sink_20] -1.6354166666668334e+01
flow[sink_25,sink_20] 6.1022687724086921e+01
flow[sink_25,sink_15] -8.3605000403386683e+01
flow[sink_15,sink_29] -9.9959167070053354e+01
flow[sink_29,sink_28] 1.6354166666667879e+01
flow[sink_29,sink_2] 1.6354166666684250e+01
flow[sink_2,sink_15] 0
flow[sink_29,innode_7] -1.4902166707007305e+02
flow[innode_4,sink_19] 42.2247987625938
flow[sink_19,innode_3] 7.7212119947067876e+01
flow[innode_4,innode_5] 67.695654517807
flow[sink_27,innode_5] -67.695654517807
flow[sink_27,sink_19] 5.1341487851140329e+01
flow[sink_10,sink_11] 3.2708333333333641e+01
flow[sink_10,innode_2] 0
flow[sink_10,innode_3] -7.7212119947067876e+01
flow[innode_6,sink_25] -4.5587133862658931e+00
flow[sink_11,innode_1] 1.6354166666666970e+01
flow[sink_19,innode_2] 0
flow[source_3,innode_4] 1.0992045328040081e+02
flow[source_2,innode_7] 1.4902166707007305e+02
flow[sink_3,innode_8] 1.7199191694082702e+02
pressure[innode_1] 7.4869158828555229e+01
pressure[innode_2] 7.5020860136158774e+01
pressure[innode_3] 7.9131638316428166e+01
pressure[innode_4] 81.01325
pressure[innode_5] 8.0966685359219738e+01
pressure[innode_6] 7.3693445095509688e+01
pressure[innode_7] 81.01325
pressure[innode_8] 8.0329015261663457e+01
pressure[source_1] 81.01325
pressure[source_2] 81.01325
pressure[source_3] 81.01325
pressure[sink_1] 4.5760823963546635e+01
pressure[sink_2] 7.6613234699121918e+01
pressure[sink_3] 8.0329015261663457e+01
pressure[sink_4] 5.7068550234880178e+01
pressure[sink_5] 5.3043569128892848e+01
pressure[sink_6] 4.7861901573934006e+01
pressure[sink_7] 4.7299391824108845e+01
pressure[sink_8] 5.8006167503959993e+01
pressure[sink_9] 5.4115833188840142e+01
pressure[sink_10] 7.5020860136158774e+01
pressure[sink_11] 7.4869158828555229e+01
pressure[sink_12] 1.0132499999999998e+00
pressure[sink_13] 7.3668313670442984e+01
pressure[sink_14] 7.3689422638838721e+01
pressure[sink_15] 7.4099010814003989e+01
pressure[sink_16] 7.3847508993737549e+01
pressure[sink_17] 5.5290708021885891e+01
pressure[sink_18] 5.0266211107028475e+01
pressure[sink_19] 7.9302615812726870e+01
pressure[sink_20] 5.9145822927548281e+01
pressure[sink_21] 3.0507688372353
pressure[sink_22] 4.6824593105901641e+01
pressure[sink_23] 8.0164297250003671e+01
pressure[sink_24] 3.2952828897564457e+00
pressure[sink_25] 7.3693445095509688e+01
pressure[sink_26] 6.1462578231147091e+01
pressure[sink_27] 8.0404936514841509e+01
pressure[sink_28] 76.7322219239684
pressure[sink_29] 7.7027504197585571e+01
interdiction[source_1,sink_3] 0
interdiction[innode_1,sink_16] 0
interdiction[innode_6,sink_13] 0
interdiction[sink_13,sink_14] 0
interdiction[sink_14,sink_10] 0
interdiction[sink_25,sink_26] 0
interdiction[sink_26,sink_9] 0
interdiction[sink_9,sink_18] 0
interdiction[sink_26,sink_4] 0
interdiction[sink_4,sink_20] 0
interdiction[sink_18,sink_6] 0
interdiction[sink_25,innode_8] 0
interdiction[sink_6,sink_7] 0
interdiction[sink_6,sink_22] 0
interdiction[sink_7,sink_24] 0
interdiction[sink_22,sink_1] 0
interdiction[sink_24,sink_21] 0
interdiction[sink_21,sink_12] 0
interdiction[sink_7,sink_5] 0
interdiction[sink_5,sink_17] 0
interdiction[sink_17,sink_4] 0
interdiction[sink_17,sink_8] 1
interdiction[sink_3,sink_23] 0
interdiction[sink_8,sink_20] 0
interdiction[sink_25,sink_20] 0
interdiction[sink_25,sink_15] 0
interdiction[sink_15,sink_29] 0
interdiction[sink_29,sink_28] 0
interdiction[sink_29,sink_2] 0
interdiction[sink_2,sink_15] 1
interdiction[sink_29,innode_7] 0
interdiction[innode_4,sink_19] 0
interdiction[sink_19,innode_3] 0
interdiction[innode_4,innode_5] 0
interdiction[sink_27,innode_5] 0
interdiction[sink_27,sink_19] 0
interdiction[sink_10,sink_11] 0
interdiction[sink_10,innode_2] 0
interdiction[sink_10,innode_3] 0
interdiction[innode_6,sink_25] 0
interdiction[sink_11,innode_1] 0
interdiction[sink_19,innode_2] 1
interdiction[source_3,innode_4] 0
interdiction[source_2,innode_7] 0
interdiction[sink_3,innode_8] 0
WCcheckFlow[source_1,sink_3] 39
WCcheckFlow[innode_1,sink_16] 1
WCcheckFlow[innode_6,sink_13] 13
WCcheckFlow[sink_13,sink_14] 12
WCcheckFlow[sink_14,sink_10] 11
WCcheckFlow[sink_25,sink_26] 15
WCcheckFlow[sink_26,sink_9] 11
WCcheckFlow[sink_9,sink_18] 10
WCcheckFlow[sink_26,sink_4] 3
WCcheckFlow[sink_4,sink_20] 2
WCcheckFlow[sink_18,sink_6] 9
WCcheckFlow[sink_25,innode_8] -36
WCcheckFlow[sink_6,sink_7] 6
WCcheckFlow[sink_6,sink_22] 2
WCcheckFlow[sink_7,sink_24] 3
WCcheckFlow[sink_22,sink_1] 1
WCcheckFlow[sink_24,sink_21] 2
WCcheckFlow[sink_21,sink_12] 1
WCcheckFlow[sink_7,sink_5] 2
WCcheckFlow[sink_5,sink_17] 1
WCcheckFlow[sink_17,sink_4] 0
WCcheckFlow[sink_17,sink_8] 0
WCcheckFlow[sink_3,sink_23] 1
WCcheckFlow[sink_8,sink_20] -1
WCcheckFlow[sink_25,sink_20] 0
WCcheckFlow[sink_25,sink_15] 6
WCcheckFlow[sink_15,sink_29] 5
WCcheckFlow[sink_29,sink_28] 1
WCcheckFlow[sink_29,sink_2] 1
WCcheckFlow[sink_2,sink_15] 0
WCcheckFlow[sink_29,innode_7] 2
WCcheckFlow[innode_4,sink_19] -4
WCcheckFlow[sink_19,innode_3] -5
WCcheckFlow[innode_4,innode_5] 2
WCcheckFlow[sink_27,innode_5] -1
WCcheckFlow[sink_27,sink_19] 0
WCcheckFlow[sink_10,sink_11] 3
WCcheckFlow[sink_10,innode_2] 1
WCcheckFlow[sink_10,innode_3] 6
WCcheckFlow[innode_6,sink_25] -14
WCcheckFlow[sink_11,innode_1] 2
WCcheckFlow[sink_19,innode_2] 0
WCcheckFlow[source_3,innode_4] -1
WCcheckFlow[source_2,innode_7] -1
WCcheckFlow[sink_3,innode_8] 37
